results_rootrelaxation/bin012_090_041.srr.sol
solution status: optimal solution found
objective value:                                   35
_var30_                            0.0245030050855332 	(obj:5)
_var113_                            0.387424872861766 	(obj:4)
_var114_                          0.00878409616274123 	(obj:5)
_var155_                           0.0471567267683806 	(obj:4)
_var226_                           0.0748959778085915 	(obj:5)
_var268_                           0.0554785020804472 	(obj:5)
_var562_                           0.0374479889043055 	(obj:4)
_var600_                           0.0369856680536324 	(obj:5)
_var667_                           0.0702727693018962 	(obj:5)
_var670_                            0.386500231160424 	(obj:3)
_var687_                            0.432269995376791 	(obj:2)
_var689_                            0.293573740175676 	(obj:5)
_var707_                            0.301433194637073 	(obj:3)
_var710_                           0.0129449838187686 	(obj:4)
_var711_                            0.321775312066589 	(obj:3)
_var712_                            0.030050855293559 	(obj:2)
_var716_                           0.0776699029126184 	(obj:4)
_var717_                            0.192325473878863 	(obj:3)
_var724_                            0.507165973185397 	(obj:3)
_var725_                            0.150716597318537 	(obj:4)
_var727_                           0.0282015718908908 	(obj:3)
_var730_                            0.444290337494221 	(obj:5)
_var731_                             0.23578363384189 	(obj:2)
_var733_                            0.154877484974564 	(obj:4)
_var739_                            0.472491909385109 	(obj:3)
_var741_                           0.0194174757281503 	(obj:5)
_var742_                            0.217290799815062 	(obj:2)
_var747_                            0.340730466944061 	(obj:4)
_var750_                           0.0282015718908908 	(obj:4)
_var752_                            0.115117891816916 	(obj:5)
_var754_                            0.216828478964403 	(obj:4)
_var756_                            0.195099398982896 	(obj:1)
_var757_                           0.0605640314378115 	(obj:2)
_var760_                            0.509477577438751 	(obj:3)
_var762_                           0.0268146093388859 	(obj:4)
_var764_                           0.0762829403606112 	(obj:2)
_var765_                            0.141007859454467 	(obj:4)
_var766_                            0.133610725843738 	(obj:5)
_var767_                            0.201109570041616 	(obj:2)
_var768_                            0.258899676375401 	(obj:3)
_var769_                           0.0901525658807205 	(obj:3)
_var770_                            0.453074433656952 	(obj:1)
_var771_                           0.0448451225150199 	(obj:3)
_var773_                            0.150716597318537 	(obj:4)
_var774_                            0.222838650023122 	(obj:5)
_var775_                            0.038372630605646 	(obj:3)
_var779_                           0.0443828016643595 	(obj:4)
_var780_                           0.0319001386962572 	(obj:4)
_var781_                            0.255663430420708 	(obj:1)
_var782_                            0.255201109570039 	(obj:4)
_var783_                            0.127138233934354 	(obj:3)
_var785_                            0.134073046694402 	(obj:5)
_var788_                           0.0258899676375371 	(obj:5)
_var789_                             0.24549237170597 	(obj:3)
_var790_                             0.12898751733703 	(obj:4)
_var795_                            0.133610725843739 	(obj:2)
_var798_                            0.432732316227455 	(obj:4)
_var800_                            0.261673601479428 	(obj:2)
_var803_                            0.291262135922341 	(obj:1)
_var805_                            0.179842810910783 	(obj:3)
_var809_                            0.060101710587148 	(obj:5)
_var811_                            0.066574202496531 	(obj:2)
