results_rootrelaxation/bin012_090_041.srr.log
SCIP version 8.0.3.5 [precision: 8 byte] [memory: block] [mode: optimized] [LP solver: Soplex 6.0.1.3] [GitHash: 438792519e]
Copyright (c) 2002-2023 Zuse Institute Berlin (ZIB)

External libraries: 
  Readline 8.1         GNU library for command line editing (gnu.org/s/readline)
  Soplex 6.0.1.3       Linear Programming Solver developed at Zuse Institute Berlin (soplex.zib.de) [GitHash: 713be0fe]
  CppAD 20180000.0     Algorithmic Differentiation of C++ algorithms developed by B. Bell (github.com/coin-or/CppAD)
  ZLIB 1.2.11          General purpose compression library by J. Gailly and M. Adler (zlib.net)
  bliss 0.77           Computing Graph Automorphism Groups by T. Junttila and P. Kaski (www.tcs.hut.fi/Software/bliss/)

user parameter file <scip.set> not found - using default parameters

srr/relaxation = TRUE

read problem <instances/bin012_090_041.srr>
============

Original problem: 
original problem has 0 variables (0 bin, 0 int, 0 impl, 0 cont) and 77 constraints

presolving:
presolving (1 rounds: 1 fast, 1 medium, 1 exhaustive):
 0 deleted vars, 0 deleted constraints, 0 added constraints, 0 tightened bounds, 0 added holes, 0 changed sides, 0 changed coefficients
 0 implications, 0 cliques
presolved problem has 0 variables (0 bin, 0 int, 0 impl, 0 cont) and 77 constraints
     77 constraints of type <linear>
Presolving Time: 0.00

 time | node  | left  |LP iter|LP it/n|mem/heur|mdpt |vars |cons |rows |cuts |sepa|confs|strbr|  dualbound   | primalbound  |  gap   | compl. 
  0.0s|     1 |     0 |     1 |     - |   710k |   0 |   1 |  77 |  77 |   0 |  0 |   0 |   0 |      --      |      --      |    Inf | unknown
r 0.0s|     1 |     0 |   948 |     - |simplero|   0 | 670 |  77 |  77 |   0 |  0 |   0 |   0 |      --      | 4.662201e+01 |    Inf | unknown
r 0.0s|     1 |     0 |   985 |     - |simplero|   0 | 681 |  77 |  77 |   0 |  0 |   0 |   0 |      --      | 4.584718e+01 |    Inf | unknown
r 0.0s|     1 |     0 |  1041 |     - |simplero|   0 | 692 |  77 |  77 |   0 |  0 |   0 |   0 |      --      | 4.425626e+01 |    Inf | unknown
r 0.1s|     1 |     0 |  1101 |     - |simplero|   0 | 703 |  77 |  77 |   0 |  0 |   0 |   0 |      --      | 4.227453e+01 |    Inf | unknown
r 0.1s|     1 |     0 |  1112 |     - |simplero|   0 | 703 |  77 |  77 |   0 |  0 |   0 |   0 |      --      | 4.222856e+01 |    Inf | unknown
r 0.1s|     1 |     0 |  1166 |     - |simplero|   0 | 714 |  77 |  77 |   0 |  0 |   0 |   0 |      --      | 4.118922e+01 |    Inf | unknown
r 0.1s|     1 |     0 |  1173 |     - |simplero|   0 | 714 |  77 |  77 |   0 |  0 |   0 |   0 |      --      | 4.118530e+01 |    Inf | unknown
r 0.1s|     1 |     0 |  1230 |     - |simplero|   0 | 725 |  77 |  77 |   0 |  0 |   0 |   0 |      --      | 3.997927e+01 |    Inf | unknown
r 0.1s|     1 |     0 |  1291 |     - |simplero|   0 | 736 |  77 |  77 |   0 |  0 |   0 |   0 |      --      | 3.905980e+01 |    Inf | unknown
r 0.1s|     1 |     0 |  1341 |     - |simplero|   0 | 747 |  77 |  77 |   0 |  0 |   0 |   0 |      --      | 3.803522e+01 |    Inf | unknown
r 0.1s|     1 |     0 |  1370 |     - |simplero|   0 | 747 |  77 |  77 |   0 |  0 |   0 |   0 |      --      | 3.779477e+01 |    Inf | unknown
r 0.1s|     1 |     0 |  1423 |     - |simplero|   0 | 758 |  77 |  77 |   0 |  0 |   0 |   0 |      --      | 3.713356e+01 |    Inf | unknown
r 0.1s|     1 |     0 |  1427 |     - |simplero|   0 | 758 |  77 |  77 |   0 |  0 |   0 |   0 |      --      | 3.712258e+01 |    Inf | unknown
r 0.1s|     1 |     0 |  1472 |     - |simplero|   0 | 769 |  77 |  77 |   0 |  0 |   0 |   0 |      --      | 3.644217e+01 |    Inf | unknown
 time | node  | left  |LP iter|LP it/n|mem/heur|mdpt |vars |cons |rows |cuts |sepa|confs|strbr|  dualbound   | primalbound  |  gap   | compl. 
r 0.1s|     1 |     0 |  1507 |     - |simplero|   0 | 780 |  77 |  77 |   0 |  0 |   0 |   0 |      --      | 3.595825e+01 |    Inf | unknown
r 0.1s|     1 |     0 |  1522 |     - |simplero|   0 | 780 |  77 |  77 |   0 |  0 |   0 |   0 |      --      | 3.593082e+01 |    Inf | unknown
r 0.1s|     1 |     0 |  1523 |     - |simplero|   0 | 780 |  77 |  77 |   0 |  0 |   0 |   0 |      --      | 3.593081e+01 |    Inf | unknown
r 0.1s|     1 |     0 |  1579 |     - |simplero|   0 | 791 |  77 |  77 |   0 |  0 |   0 |   0 |      --      | 3.554827e+01 |    Inf | unknown
r 0.1s|     1 |     0 |  1580 |     - |simplero|   0 | 791 |  77 |  77 |   0 |  0 |   0 |   0 |      --      | 3.554819e+01 |    Inf | unknown
r 0.1s|     1 |     0 |  1611 |     - |simplero|   0 | 802 |  77 |  77 |   0 |  0 |   0 |   0 |      --      | 3.519991e+01 |    Inf | unknown
r 0.1s|     1 |     0 |  1614 |     - |simplero|   0 | 802 |  77 |  77 |   0 |  0 |   0 |   0 |      --      | 3.519957e+01 |    Inf | unknown
r 0.1s|     1 |     0 |  1615 |     - |simplero|   0 | 802 |  77 |  77 |   0 |  0 |   0 |   0 |      --      | 3.519954e+01 |    Inf | unknown
r 0.1s|     1 |     0 |  1641 |     - |simplero|   0 | 813 |  77 |  77 |   0 |  0 |   0 |   0 |      --      | 3.500000e+01 |    Inf | unknown
  0.1s|     1 |     0 |  1641 |     - |  3802k |   0 | 813 |  77 |  77 |   0 |  0 |   0 |   0 | 3.500000e+01 | 3.500000e+01 |   0.00%| unknown
  0.1s|     1 |     0 |  1641 |     - |  3802k |   0 | 813 |  77 |  77 |   0 |  0 |   0 |   0 | 3.500000e+01 | 3.500000e+01 |   0.00%| unknown

SCIP Status        : problem is solved [optimal solution found]
Solving Time (sec) : 0.08
Solving Nodes      : 1
Primal Bound       : +3.50000000000000e+01 (23 solutions)
Dual Bound         : +3.50000000000000e+01
Gap                : 0.00 %

written transformed problem to file <results_rootrelaxation/bin012_090_041.srr.lp>
written transformed problem to file <results_rootrelaxation/bin012_090_041.srr.cip>

written solution information to file <results_rootrelaxation/bin012_090_041.srr.sol>



